
--- Job modelo_ij_ejemplo_muy_muy_grande.gms Start 01/18/23 16:06:00 41.2.0 5110e5ff WEX-WEI x86 64bit/MS Windows
--- Applying:
    C:\GAMS\41\gmsprmNT.txt
--- GAMS Parameters defined
    Input "G:\Mi unidad\TFG\src\modelo_ij_ejemplo_muy_muy_grande.gms"
    PageSize 0
    ScrDir "G:\Mi unidad\TFG\src\225a\"
    SysDir C:\GAMS\41\
    LogOption 3
    ErrMsg 1
    ErrorLog 99
    IDE 1
    LstTitleLeftAligned 1
Licensee: GAMS Demo license for Antonio Sevilla Sastre   G221121|0002CO-GEN
          UCM, Spain                                               DL079880
          C:\Users\Antonio\Documents\GAMS\gamslice.txt
          antsev01@ucm.es, Antonio Sevilla Sastre                          
          Demo license for demonstration and instructional purposes only
Processor information: 1 socket(s), 14 core(s), and 20 thread(s) available
GAMS 41.2.0   Copyright (C) 1987-2022 GAMS Development. All rights reserved
--- Starting compilation
--- modelo_ij_ejemplo_muy_muy_grande.gms(144) 3 Mb
--- Starting execution: elapsed 0:00:00.031
--- Generating MIP model modelo1
--- modelo_ij_ejemplo_muy_muy_grande.gms(142) 4 Mb
---   1,211 rows  547 columns  2,499 non-zeroes
---   272 discrete-columns
--- Range statistics (absolute non-zero finite values)
--- RHS       [min, max] : [ 1.000E+00, 9.900E+01] - Zero values observed as well
--- Bound     [min, max] : [ 1.000E+00, 1.000E+00] - Zero values observed as well
--- Matrix    [min, max] : [ 1.000E+00, 9.900E+01]
--- Executing CPLEX (Solvelink=2): elapsed 0:00:00.108

IBM ILOG CPLEX   41.2.0 5110e5ff Nov 14, 2022          WEI x86 64bit/MS Window

--- *** This solver runs with a demo license. No commercial use.
--- GMO setup time: 0.00s
--- Space for names approximately 0.04 Mb
--- Use option 'names no' to turn use of names off
--- GMO memory 0.70 Mb (peak 0.70 Mb)
--- Dictionary memory 0.00 Mb
--- Cplex 22.1.0.0 link memory 0.02 Mb (peak 0.11 Mb)
--- Starting Cplex

Version identifier: 22.1.0.0 | 2022-03-09 | 1a383f8ce
CPXPARAM_Advance                                 0
CPXPARAM_Threads                                 1
CPXPARAM_MIP_Display                             4
CPXPARAM_MIP_Pool_Capacity                       0
CPXPARAM_MIP_Tolerances_AbsMIPGap                0
Generic callback                                 0x50
Found incumbent of value 64.000000 after 0.00 sec. (0.05 ticks)
Tried aggregator 2 times.
MIP Presolve eliminated 1165 rows and 503 columns.
Aggregator did 3 substitutions.
Reduced MIP has 42 rows, 41 columns, and 116 nonzeros.
Reduced MIP has 8 binaries, 0 generals, 0 SOSs, and 0 indicators.
Presolve time = 0.00 sec. (0.84 ticks)
Probing fixed 0 vars, tightened 12 bounds.
Probing time = 0.00 sec. (0.03 ticks)
Cover probing fixed 0 vars, tightened 5 bounds.
Tried aggregator 1 time.
Detecting symmetries...
MIP Presolve eliminated 6 rows and 0 columns.
Reduced MIP has 36 rows, 41 columns, and 104 nonzeros.
Reduced MIP has 8 binaries, 0 generals, 0 SOSs, and 0 indicators.
Presolve time = 0.00 sec. (0.07 ticks)
Probing time = 0.00 sec. (0.02 ticks)
Cover probing fixed 0 vars, tightened 6 bounds.
Clique table members: 1.
MIP emphasis: balance optimality and feasibility.
MIP search method: dynamic search.
Parallel mode: none, using 1 thread.
Tried aggregator 1 time.
LP Presolve eliminated 11 rows and 3 columns.
Reduced LP has 25 rows, 38 columns, and 79 nonzeros.
Presolve time = 0.00 sec. (0.02 ticks)
Initializing dual steep norms . . .

Iteration log . . .
Iteration:     1   Dual objective     =            32.000000
Initializing dual steep norms . . .
Root relaxation solution time = 0.00 sec. (0.08 ticks)

        Nodes                                         Cuts/
   Node  Left     Objective  IInf  Best Integer    Best Bound    ItCnt     Gap

*     0+    0                           64.0000        0.0000           100.00%
Found incumbent of value 64.000000 after 0.00 sec. (1.17 ticks)
      0     0       32.0000     2       64.0000       32.0000       23   50.00%
*     0     0      integral     0       32.0000       32.0000       23    0.00%
Elapsed time = 0.00 sec. (1.20 ticks, tree = 0.01 MB)
Found incumbent of value 32.000000 after 0.00 sec. (1.20 ticks)

Root node processing (before b&c):
  Real time             =    0.00 sec. (1.21 ticks)
Sequential b&c:
  Real time             =    0.00 sec. (0.00 ticks)
                          ------------
Total (root+branch&cut) =    0.00 sec. (1.21 ticks)

--- MIP status (101): integer optimal solution.
--- Cplex Time: 0.00sec (det. 1.21 ticks)

--- Fixing integer variables and solving final LP...

Version identifier: 22.1.0.0 | 2022-03-09 | 1a383f8ce
CPXPARAM_Advance                                 2
CPXPARAM_Threads                                 1
CPXPARAM_MIP_Display                             4
CPXPARAM_MIP_Pool_Capacity                       0
CPXPARAM_MIP_Tolerances_AbsMIPGap                0
Tried aggregator 1 time.
LP Presolve eliminated 1194 rows and 523 columns.
Aggregator did 6 substitutions.
Reduced LP has 10 rows, 18 columns, and 32 nonzeros.
Presolve time = 0.00 sec. (0.51 ticks)
Initializing dual steep norms . . .

Iteration log . . .
Iteration:     1   Dual objective     =            32.000000

--- Fixed MIP status (1): optimal.
--- Cplex Time: 0.00sec (det. 0.94 ticks)


Proven optimal solution
MIP Solution:           32.000000    (23 iterations, 0 nodes)
Final Solve:            32.000000    (10 iterations)

Best possible:          32.000000
Absolute gap:            0.000000
Relative gap:            0.000000

--- Reading solution for model modelo1
*** Status: Normal completion
--- Job modelo_ij_ejemplo_muy_muy_grande.gms Stop 01/18/23 16:06:00 elapsed 0:00:00.199
